Version identifier: 12.10.0.0 | 2019-11-26 | 843d4de
CPXPARAM_WorkMem                                 28672
Tried aggregator 2 times.
Aggregator did 30 substitutions.
Reduced MIP has 103 rows, 120 columns, and 480 nonzeros.
Reduced MIP has 120 binaries, 0 generals, 0 SOSs, and 0 indicators.
Presolve time = 0,00 sec. (0,45 ticks)
Found incumbent of value 528,000000 after 0,00 sec. (0,81 ticks)
Probing time = 0,00 sec. (0,17 ticks)
Tried aggregator 1 time.
Detecting symmetries...
MIP Presolve eliminated 21 rows and 0 columns.
MIP Presolve added 42 rows and 0 columns.
Reduced MIP has 124 rows, 120 columns, and 501 nonzeros.
Reduced MIP has 120 binaries, 0 generals, 0 SOSs, and 0 indicators.
Presolve time = 0,00 sec. (0,55 ticks)
Probing time = 0,00 sec. (0,17 ticks)
Clique table members: 340.
MIP emphasis: balance optimality and feasibility.
MIP search method: dynamic search.
Parallel mode: deterministic, using up to 16 threads.
Root relaxation solution time = 0,00 sec. (0,43 ticks)

        Nodes                                         Cuts/
   Node  Left     Objective  IInf  Best Integer    Best Bound    ItCnt     Gap

*     0+    0                          528,0000        0,0000           100,00%
*     0+    0                          380,0000        0,0000           100,00%
      0     0      176,0000   114      380,0000      176,0000       54   53,68%
      0     0      178,6483   114      380,0000     Cuts: 107      100   52,99%
      0     0      184,6933   114      380,0000      Cuts: 79      133   51,40%
      0     0      185,9571   114      380,0000      Cuts: 93      147   51,06%
      0     0      186,4851   114      380,0000      Fract: 1      160   50,92%
      0     0      186,5020   114      380,0000      Cuts: 37      161   50,92%
Detecting symmetries...
      0     0      186,5544   114      380,0000       Cuts: 2      174   50,91%
      0     0      186,5645   114      380,0000      Cuts: 49      175   50,90%
*     0+    0                          369,0000      186,5645            49,44%
      0     0      186,5897   114      369,0000   Impl Bds: 1      178   49,43%
      0     0      186,6455   114      369,0000   ZeroHalf: 1      181   49,42%
*     0+    0                          344,0000      186,6455            45,74%
      0     0        cutoff            344,0000      344,0000      181    0,00%
Elapsed time = 0,05 sec. (28,43 ticks, tree = 0,01 MB, solutions = 4)

Clique cuts applied:  14
Cover cuts applied:  23
Flow cuts applied:  3
Mixed integer rounding cuts applied:  34
Zero-half cuts applied:  6
Gomory fractional cuts applied:  5

Root node processing (before b&c):
  Real time             =    0,05 sec. (28,44 ticks)
Parallel b&c, 16 threads:
  Real time             =    0,00 sec. (0,00 ticks)
  Sync time (average)   =    0,00 sec.
  Wait time (average)   =    0,00 sec.
                          ------------
Total (root+branch&cut) =    0,05 sec. (28,44 ticks)
